NAME : kroB150.58877.tour
COMMENT : Cost = 5750_58877
COMMENT : Found by LKH [Keld Helsgaun] Thu Nov 16 17:33:47 2017
TYPE : TOUR
DIMENSION : 169
TOUR_SECTION
1
53
169
49
105
19
99
141
92
10
45
81
97
144
96
87
150
52
11
84
48
103
128
44
66
18
160
80
2
95
129
94
123
91
35
107
163
142
162
41
89
122
21
139
131
76
121
111
70
102
23
68
30
77
115
166
43
167
110
55
8
114
145
109
58
34
90
25
17
106
42
64
20
168
130
65
147
104
50
133
86
5
119
56
71
124
72
83
62
138
54
149
13
161
117
32
132
61
26
7
82
78
9
146
135
127
51
63
16
120
37
29
165
116
4
60
140
59
118
73
3
69
136
33
100
74
57
36
14
143
93
164
31
6
113
126
39
38
101
28
88
148
98
108
112
22
75
134
47
67
79
159
24
158
46
157
12
156
15
155
125
154
27
153
40
152
137
151
85
-1
EOF
